num_features = 33;
num_usage_limits = 3;
num_plans = 3;
num_addons = 0;

features = ["freeTemplates","freeLogos","freeFonts","freePhotos","freeGraphics","premiumStockImages","createDesignsWithCustomDimesions","exportDesignsAsPDF","exportDesignsAsPNG","exportDesignsAsJPG","builtInSocialSharing","presentationMode","oneClickDesignResizing","createCustomTemplates","uploadYourPhotosAndFonts","downloadDesignsWithTransparentBackground","customizeDownloadQuality","exportDesignsAsAnimatedGIF","exportDesignsAsMP4","teamSharing","shareView","editAccessToDesigns","addCommentsToDesigns","bluitInCommenting","approvalsWorkflow","brandKit","brandControls","advancedTemplateLocking","cloudStorage","folders","24/7support","twoFactorAuthentication","singleSignOn"];
usage_limits = ["brandKitUnits","cloudStorageLimit","foldersLimit"];
plans = ["FREE","PRO","ENTERPRISE"];
addons = [];

plans_prices = [0,12.95,129.5];
addons_prices = [];

linked_features = array2d(USAGE_LIMITS, FEATURES, [
    % brandKitUnits
    0,0,0,0,0,0,0,0,0,0,0,0,0,0,0,0,0,0,0,0,0,0,0,0,0,1,0,0,0,0,0,0,0,
    % cloudStorageLimit
    0,0,0,0,0,0,0,0,0,0,0,0,0,0,0,0,0,0,0,0,0,0,0,0,0,0,0,0,1,0,0,0,0,
    % foldersLimit
    0,0,0,0,0,0,0,0,0,0,0,0,0,0,0,0,0,0,0,0,0,0,0,0,0,0,0,0,0,1,0,0,0
]);

plans_features = array2d(PLANS, FEATURES, [
    % FREE
    1,1,1,1,1,0,1,1,1,1,1,1,0,0,0,0,0,1,1,1,1,1,1,1,0,0,0,0,1,1,0,1,0,
    % PRO
    1,1,1,1,1,1,1,1,1,1,1,1,1,1,1,1,1,1,1,1,1,1,1,1,0,1,0,0,1,1,1,1,0,
    % ENTERPRISE
    1,1,1,1,1,1,1,1,1,1,1,1,1,1,1,1,1,1,1,1,1,1,1,1,1,1,1,1,1,1,1,1,1
]);
plans_usage_limits = array2d(PLANS, USAGE_LIMITS, [
    % FREE
    0,1,2,
    % PRO
    1,100,1000000000,
    % ENTERPRISE
    1000000000,1000000000,1000000000
]);

addons_features = array2d(ADDONS, FEATURES, [
]);
addons_usage_limits = array2d(ADDONS, USAGE_LIMITS, [
]);
addons_usage_limits_extensions = array2d(ADDONS, USAGE_LIMITS, [
]);
addons_available_for = array2d(ADDONS, PLANS, [
]);
addons_depends_on = array2d(ADDONS, ADDONS, [
]);
